p cnf 150 985
1 2 3 4 5 6 0
7 8 9 10 11 12 0
13 14 15 16 17 18 0
19 20 21 22 23 24 0
25 26 27 28 29 30 0
31 32 33 34 35 36 0
37 38 39 40 41 42 0
43 44 45 46 47 48 0
49 50 51 52 53 54 0
55 56 57 58 59 60 0
61 62 63 64 65 66 0
67 68 69 70 71 72 0
73 74 75 76 77 78 0
79 80 81 82 83 84 0
85 86 87 88 89 90 0
91 92 93 94 95 96 0
97 98 99 100 101 102 0
103 104 105 106 107 108 0
109 110 111 112 113 114 0
115 116 117 118 119 120 0
121 122 123 124 125 126 0
127 128 129 130 131 132 0
133 134 135 136 137 138 0
139 140 141 142 143 144 0
145 146 147 148 149 150 0
-1 -7 0
-2 -8 0
-3 -9 0
-4 -10 0
-5 -11 0
-6 -12 0
-1 -13 0
-2 -14 0
-3 -15 0
-4 -16 0
-5 -17 0
-6 -18 0
-1 -31 0
-2 -32 0
-3 -33 0
-4 -34 0
-5 -35 0
-6 -36 0
-1 -43 0
-2 -44 0
-3 -45 0
-4 -46 0
-5 -47 0
-6 -48 0
-1 -49 0
-2 -50 0
-3 -51 0
-4 -52 0
-5 -53 0
-6 -54 0
-1 -61 0
-2 -62 0
-3 -63 0
-4 -64 0
-5 -65 0
-6 -66 0
-1 -91 0
-2 -92 0
-3 -93 0
-4 -94 0
-5 -95 0
-6 -96 0
-1 -109 0
-2 -110 0
-3 -111 0
-4 -112 0
-5 -113 0
-6 -114 0
-1 -121 0
-2 -122 0
-3 -123 0
-4 -124 0
-5 -125 0
-6 -126 0
-1 -127 0
-2 -128 0
-3 -129 0
-4 -130 0
-5 -131 0
-6 -132 0
-1 -133 0
-2 -134 0
-3 -135 0
-4 -136 0
-5 -137 0
-6 -138 0
-1 -139 0
-2 -140 0
-3 -141 0
-4 -142 0
-5 -143 0
-6 -144 0
-1 -145 0
-2 -146 0
-3 -147 0
-4 -148 0
-5 -149 0
-6 -150 0
-7 -31 0
-8 -32 0
-9 -33 0
-10 -34 0
-11 -35 0
-12 -36 0
-7 -37 0
-8 -38 0
-9 -39 0
-10 -40 0
-11 -41 0
-12 -42 0
-7 -43 0
-8 -44 0
-9 -45 0
-10 -46 0
-11 -47 0
-12 -48 0
-7 -61 0
-8 -62 0
-9 -63 0
-10 -64 0
-11 -65 0
-12 -66 0
-7 -67 0
-8 -68 0
-9 -69 0
-10 -70 0
-11 -71 0
-12 -72 0
-7 -73 0
-8 -74 0
-9 -75 0
-10 -76 0
-11 -77 0
-12 -78 0
-7 -91 0
-8 -92 0
-9 -93 0
-10 -94 0
-11 -95 0
-12 -96 0
-7 -103 0
-8 -104 0
-9 -105 0
-10 -106 0
-11 -107 0
-12 -108 0
-7 -115 0
-8 -116 0
-9 -117 0
-10 -118 0
-11 -119 0
-12 -120 0
-7 -139 0
-8 -140 0
-9 -141 0
-10 -142 0
-11 -143 0
-12 -144 0
-13 -31 0
-14 -32 0
-15 -33 0
-16 -34 0
-17 -35 0
-18 -36 0
-13 -37 0
-14 -38 0
-15 -39 0
-16 -40 0
-17 -41 0
-18 -42 0
-13 -49 0
-14 -50 0
-15 -51 0
-16 -52 0
-17 -53 0
-18 -54 0
-13 -55 0
-14 -56 0
-15 -57 0
-16 -58 0
-17 -59 0
-18 -60 0
-13 -67 0
-14 -68 0
-15 -69 0
-16 -70 0
-17 -71 0
-18 -72 0
-13 -79 0
-14 -80 0
-15 -81 0
-16 -82 0
-17 -83 0
-18 -84 0
-13 -91 0
-14 -92 0
-15 -93 0
-16 -94 0
-17 -95 0
-18 -96 0
-13 -109 0
-14 -110 0
-15 -111 0
-16 -112 0
-17 -113 0
-18 -114 0
-13 -115 0
-14 -116 0
-15 -117 0
-16 -118 0
-17 -119 0
-18 -120 0
-13 -127 0
-14 -128 0
-15 -129 0
-16 -130 0
-17 -131 0
-18 -132 0
-13 -133 0
-14 -134 0
-15 -135 0
-16 -136 0
-17 -137 0
-18 -138 0
-13 -145 0
-14 -146 0
-15 -147 0
-16 -148 0
-17 -149 0
-18 -150 0
-19 -31 0
-20 -32 0
-21 -33 0
-22 -34 0
-23 -35 0
-24 -36 0
-19 -37 0
-20 -38 0
-21 -39 0
-22 -40 0
-23 -41 0
-24 -42 0
-19 -43 0
-20 -44 0
-21 -45 0
-22 -46 0
-23 -47 0
-24 -48 0
-19 -55 0
-20 -56 0
-21 -57 0
-22 -58 0
-23 -59 0
-24 -60 0
-19 -67 0
-20 -68 0
-21 -69 0
-22 -70 0
-23 -71 0
-24 -72 0
-19 -73 0
-20 -74 0
-21 -75 0
-22 -76 0
-23 -77 0
-24 -78 0
-19 -85 0
-20 -86 0
-21 -87 0
-22 -88 0
-23 -89 0
-24 -90 0
-19 -91 0
-20 -92 0
-21 -93 0
-22 -94 0
-23 -95 0
-24 -96 0
-19 -97 0
-20 -98 0
-21 -99 0
-22 -100 0
-23 -101 0
-24 -102 0
-19 -115 0
-20 -116 0
-21 -117 0
-22 -118 0
-23 -119 0
-24 -120 0
-19 -127 0
-20 -128 0
-21 -129 0
-22 -130 0
-23 -131 0
-24 -132 0
-19 -139 0
-20 -140 0
-21 -141 0
-22 -142 0
-23 -143 0
-24 -144 0
-25 -31 0
-26 -32 0
-27 -33 0
-28 -34 0
-29 -35 0
-30 -36 0
-25 -49 0
-26 -50 0
-27 -51 0
-28 -52 0
-29 -53 0
-30 -54 0
-25 -55 0
-26 -56 0
-27 -57 0
-28 -58 0
-29 -59 0
-30 -60 0
-25 -73 0
-26 -74 0
-27 -75 0
-28 -76 0
-29 -77 0
-30 -78 0
-25 -85 0
-26 -86 0
-27 -87 0
-28 -88 0
-29 -89 0
-30 -90 0
-25 -91 0
-26 -92 0
-27 -93 0
-28 -94 0
-29 -95 0
-30 -96 0
-25 -97 0
-26 -98 0
-27 -99 0
-28 -100 0
-29 -101 0
-30 -102 0
-25 -103 0
-26 -104 0
-27 -105 0
-28 -106 0
-29 -107 0
-30 -108 0
-25 -127 0
-26 -128 0
-27 -129 0
-28 -130 0
-29 -131 0
-30 -132 0
-25 -139 0
-26 -140 0
-27 -141 0
-28 -142 0
-29 -143 0
-30 -144 0
-31 -37 0
-32 -38 0
-33 -39 0
-34 -40 0
-35 -41 0
-36 -42 0
-31 -43 0
-32 -44 0
-33 -45 0
-34 -46 0
-35 -47 0
-36 -48 0
-31 -61 0
-32 -62 0
-33 -63 0
-34 -64 0
-35 -65 0
-36 -66 0
-31 -73 0
-32 -74 0
-33 -75 0
-34 -76 0
-35 -77 0
-36 -78 0
-31 -79 0
-32 -80 0
-33 -81 0
-34 -82 0
-35 -83 0
-36 -84 0
-31 -91 0
-32 -92 0
-33 -93 0
-34 -94 0
-35 -95 0
-36 -96 0
-31 -97 0
-32 -98 0
-33 -99 0
-34 -100 0
-35 -101 0
-36 -102 0
-31 -139 0
-32 -140 0
-33 -141 0
-34 -142 0
-35 -143 0
-36 -144 0
-31 -145 0
-32 -146 0
-33 -147 0
-34 -148 0
-35 -149 0
-36 -150 0
-37 -49 0
-38 -50 0
-39 -51 0
-40 -52 0
-41 -53 0
-42 -54 0
-37 -61 0
-38 -62 0
-39 -63 0
-40 -64 0
-41 -65 0
-42 -66 0
-37 -67 0
-38 -68 0
-39 -69 0
-40 -70 0
-41 -71 0
-42 -72 0
-37 -91 0
-38 -92 0
-39 -93 0
-40 -94 0
-41 -95 0
-42 -96 0
-37 -109 0
-38 -110 0
-39 -111 0
-40 -112 0
-41 -113 0
-42 -114 0
-37 -115 0
-38 -116 0
-39 -117 0
-40 -118 0
-41 -119 0
-42 -120 0
-37 -121 0
-38 -122 0
-39 -123 0
-40 -124 0
-41 -125 0
-42 -126 0
-37 -127 0
-38 -128 0
-39 -129 0
-40 -130 0
-41 -131 0
-42 -132 0
-37 -133 0
-38 -134 0
-39 -135 0
-40 -136 0
-41 -137 0
-42 -138 0
-37 -139 0
-38 -140 0
-39 -141 0
-40 -142 0
-41 -143 0
-42 -144 0
-37 -145 0
-38 -146 0
-39 -147 0
-40 -148 0
-41 -149 0
-42 -150 0
-43 -49 0
-44 -50 0
-45 -51 0
-46 -52 0
-47 -53 0
-48 -54 0
-43 -67 0
-44 -68 0
-45 -69 0
-46 -70 0
-47 -71 0
-48 -72 0
-43 -73 0
-44 -74 0
-45 -75 0
-46 -76 0
-47 -77 0
-48 -78 0
-43 -85 0
-44 -86 0
-45 -87 0
-46 -88 0
-47 -89 0
-48 -90 0
-43 -103 0
-44 -104 0
-45 -105 0
-46 -106 0
-47 -107 0
-48 -108 0
-43 -109 0
-44 -110 0
-45 -111 0
-46 -112 0
-47 -113 0
-48 -114 0
-43 -115 0
-44 -116 0
-45 -117 0
-46 -118 0
-47 -119 0
-48 -120 0
-43 -127 0
-44 -128 0
-45 -129 0
-46 -130 0
-47 -131 0
-48 -132 0
-43 -133 0
-44 -134 0
-45 -135 0
-46 -136 0
-47 -137 0
-48 -138 0
-43 -145 0
-44 -146 0
-45 -147 0
-46 -148 0
-47 -149 0
-48 -150 0
-49 -67 0
-50 -68 0
-51 -69 0
-52 -70 0
-53 -71 0
-54 -72 0
-49 -73 0
-50 -74 0
-51 -75 0
-52 -76 0
-53 -77 0
-54 -78 0
-49 -91 0
-50 -92 0
-51 -93 0
-52 -94 0
-53 -95 0
-54 -96 0
-49 -97 0
-50 -98 0
-51 -99 0
-52 -100 0
-53 -101 0
-54 -102 0
-49 -139 0
-50 -140 0
-51 -141 0
-52 -142 0
-53 -143 0
-54 -144 0
-49 -145 0
-50 -146 0
-51 -147 0
-52 -148 0
-53 -149 0
-54 -150 0
-55 -61 0
-56 -62 0
-57 -63 0
-58 -64 0
-59 -65 0
-60 -66 0
-55 -73 0
-56 -74 0
-57 -75 0
-58 -76 0
-59 -77 0
-60 -78 0
-55 -85 0
-56 -86 0
-57 -87 0
-58 -88 0
-59 -89 0
-60 -90 0
-55 -97 0
-56 -98 0
-57 -99 0
-58 -100 0
-59 -101 0
-60 -102 0
-55 -103 0
-56 -104 0
-57 -105 0
-58 -106 0
-59 -107 0
-60 -108 0
-55 -109 0
-56 -110 0
-57 -111 0
-58 -112 0
-59 -113 0
-60 -114 0
-55 -115 0
-56 -116 0
-57 -117 0
-58 -118 0
-59 -119 0
-60 -120 0
-55 -133 0
-56 -134 0
-57 -135 0
-58 -136 0
-59 -137 0
-60 -138 0
-55 -145 0
-56 -146 0
-57 -147 0
-58 -148 0
-59 -149 0
-60 -150 0
-61 -67 0
-62 -68 0
-63 -69 0
-64 -70 0
-65 -71 0
-66 -72 0
-61 -91 0
-62 -92 0
-63 -93 0
-64 -94 0
-65 -95 0
-66 -96 0
-61 -103 0
-62 -104 0
-63 -105 0
-64 -106 0
-65 -107 0
-66 -108 0
-61 -109 0
-62 -110 0
-63 -111 0
-64 -112 0
-65 -113 0
-66 -114 0
-61 -121 0
-62 -122 0
-63 -123 0
-64 -124 0
-65 -125 0
-66 -126 0
-61 -139 0
-62 -140 0
-63 -141 0
-64 -142 0
-65 -143 0
-66 -144 0
-61 -145 0
-62 -146 0
-63 -147 0
-64 -148 0
-65 -149 0
-66 -150 0
-67 -73 0
-68 -74 0
-69 -75 0
-70 -76 0
-71 -77 0
-72 -78 0
-67 -91 0
-68 -92 0
-69 -93 0
-70 -94 0
-71 -95 0
-72 -96 0
-67 -97 0
-68 -98 0
-69 -99 0
-70 -100 0
-71 -101 0
-72 -102 0
-67 -133 0
-68 -134 0
-69 -135 0
-70 -136 0
-71 -137 0
-72 -138 0
-67 -139 0
-68 -140 0
-69 -141 0
-70 -142 0
-71 -143 0
-72 -144 0
-73 -85 0
-74 -86 0
-75 -87 0
-76 -88 0
-77 -89 0
-78 -90 0
-73 -91 0
-74 -92 0
-75 -93 0
-76 -94 0
-77 -95 0
-78 -96 0
-73 -103 0
-74 -104 0
-75 -105 0
-76 -106 0
-77 -107 0
-78 -108 0
-73 -115 0
-74 -116 0
-75 -117 0
-76 -118 0
-77 -119 0
-78 -120 0
-73 -121 0
-74 -122 0
-75 -123 0
-76 -124 0
-77 -125 0
-78 -126 0
-73 -139 0
-74 -140 0
-75 -141 0
-76 -142 0
-77 -143 0
-78 -144 0
-73 -145 0
-74 -146 0
-75 -147 0
-76 -148 0
-77 -149 0
-78 -150 0
-79 -103 0
-80 -104 0
-81 -105 0
-82 -106 0
-83 -107 0
-84 -108 0
-79 -109 0
-80 -110 0
-81 -111 0
-82 -112 0
-83 -113 0
-84 -114 0
-79 -115 0
-80 -116 0
-81 -117 0
-82 -118 0
-83 -119 0
-84 -120 0
-79 -127 0
-80 -128 0
-81 -129 0
-82 -130 0
-83 -131 0
-84 -132 0
-79 -133 0
-80 -134 0
-81 -135 0
-82 -136 0
-83 -137 0
-84 -138 0
-85 -91 0
-86 -92 0
-87 -93 0
-88 -94 0
-89 -95 0
-90 -96 0
-85 -103 0
-86 -104 0
-87 -105 0
-88 -106 0
-89 -107 0
-90 -108 0
-85 -109 0
-86 -110 0
-87 -111 0
-88 -112 0
-89 -113 0
-90 -114 0
-85 -121 0
-86 -122 0
-87 -123 0
-88 -124 0
-89 -125 0
-90 -126 0
-85 -127 0
-86 -128 0
-87 -129 0
-88 -130 0
-89 -131 0
-90 -132 0
-85 -133 0
-86 -134 0
-87 -135 0
-88 -136 0
-89 -137 0
-90 -138 0
-85 -145 0
-86 -146 0
-87 -147 0
-88 -148 0
-89 -149 0
-90 -150 0
-91 -97 0
-92 -98 0
-93 -99 0
-94 -100 0
-95 -101 0
-96 -102 0
-91 -103 0
-92 -104 0
-93 -105 0
-94 -106 0
-95 -107 0
-96 -108 0
-91 -109 0
-92 -110 0
-93 -111 0
-94 -112 0
-95 -113 0
-96 -114 0
-91 -121 0
-92 -122 0
-93 -123 0
-94 -124 0
-95 -125 0
-96 -126 0
-91 -127 0
-92 -128 0
-93 -129 0
-94 -130 0
-95 -131 0
-96 -132 0
-91 -145 0
-92 -146 0
-93 -147 0
-94 -148 0
-95 -149 0
-96 -150 0
-97 -103 0
-98 -104 0
-99 -105 0
-100 -106 0
-101 -107 0
-102 -108 0
-97 -109 0
-98 -110 0
-99 -111 0
-100 -112 0
-101 -113 0
-102 -114 0
-97 -121 0
-98 -122 0
-99 -123 0
-100 -124 0
-101 -125 0
-102 -126 0
-97 -127 0
-98 -128 0
-99 -129 0
-100 -130 0
-101 -131 0
-102 -132 0
-97 -133 0
-98 -134 0
-99 -135 0
-100 -136 0
-101 -137 0
-102 -138 0
-97 -139 0
-98 -140 0
-99 -141 0
-100 -142 0
-101 -143 0
-102 -144 0
-103 -109 0
-104 -110 0
-105 -111 0
-106 -112 0
-107 -113 0
-108 -114 0
-103 -115 0
-104 -116 0
-105 -117 0
-106 -118 0
-107 -119 0
-108 -120 0
-103 -121 0
-104 -122 0
-105 -123 0
-106 -124 0
-107 -125 0
-108 -126 0
-103 -127 0
-104 -128 0
-105 -129 0
-106 -130 0
-107 -131 0
-108 -132 0
-103 -133 0
-104 -134 0
-105 -135 0
-106 -136 0
-107 -137 0
-108 -138 0
-109 -121 0
-110 -122 0
-111 -123 0
-112 -124 0
-113 -125 0
-114 -126 0
-109 -139 0
-110 -140 0
-111 -141 0
-112 -142 0
-113 -143 0
-114 -144 0
-115 -133 0
-116 -134 0
-117 -135 0
-118 -136 0
-119 -137 0
-120 -138 0
-115 -145 0
-116 -146 0
-117 -147 0
-118 -148 0
-119 -149 0
-120 -150 0
-121 -133 0
-122 -134 0
-123 -135 0
-124 -136 0
-125 -137 0
-126 -138 0
-127 -133 0
-128 -134 0
-129 -135 0
-130 -136 0
-131 -137 0
-132 -138 0
-127 -139 0
-128 -140 0
-129 -141 0
-130 -142 0
-131 -143 0
-132 -144 0
-127 -145 0
-128 -146 0
-129 -147 0
-130 -148 0
-131 -149 0
-132 -150 0
-133 -139 0
-134 -140 0
-135 -141 0
-136 -142 0
-137 -143 0
-138 -144 0
-139 -145 0
-140 -146 0
-141 -147 0
-142 -148 0
-143 -149 0
-144 -150 0
